133721
67 59 131 130 129 126 125 127 140 11 32 21 20 147 146 116 117 141 124 90 89 88 111 120 143 119 118 144 142 121 122 123 107 101 77 78 76 102 103 104 100 105 106 99 98 79 80 81 96 97 82 83 84 93 110 91 85 86 87 92 94 95 108 109 150 41 40 34 18 17 12 13 145 14 15 16 35 58 36 69 65 70 71 63 49 48 38 72 47 46 45 62 73 42 75 60 74 61 44 43 39 28 27 26 0 2 1 29 25 3 151 135 134 133 136 112 113 132 137 149 5 4 23 24 30 31 22 7 6 138 114 115 128 139 148 8 9 10 19 33 50 51 52 64 37 53 54 56 55 57 66 68 
